benchmarks/bfuzz0/31570300198443285551693777011193414326.smt2
(set-logic QF_FP)
(declare-const x0 (_ FloatingPoint 8 24))
(declare-const x1 (_ FloatingPoint 8 24))
(declare-const x2 (_ FloatingPoint 8 24))
(declare-const x3 (_ FloatingPoint 8 24))
(declare-const x4 (_ FloatingPoint 8 24))
(declare-const x5 (_ FloatingPoint 8 24))
(declare-const x6 (_ FloatingPoint 8 24))
(assert (fp.geq (fp.sub RNE x4 x0) (fp.add RNE x2 x2)))
(assert (fp.lt (fp.neg x3) (fp.add RNE x2 x1)))
(assert (fp.gt (fp.div RNE x6 x6) (fp.mul RNE x3 x6)))
(assert (fp.gt (fp.neg x1) (fp.mul RNE x5 x2)))
(check-sat)
