db/data/31570300198443285551693777011193414326.z3.out
sat
-------------------
2.678577713
